c instancia_16  vars=15  clausulas=25  k=2
p cnf 15 25
-11 7 0
10 -4 0
5 -1 0
4 14 0
-6 -4 0
-5 4 0
13 10 0
8 15 0
-14 12 0
-14 -2 0
2 -7 0
3 -5 0
-12 11 0
8 -1 0
14 -9 0
15 11 0
-9 12 0
-4 -6 0
-2 13 0
-11 -7 0
10 -15 0
9 -3 0
2 9 0
1 -5 0
-14 6 0
